%nprocshared=6
%mem=8GB
%chk=test3.chk
# opt freq hf/6-311++g(2d,p) geom=connectivity

Title Card Required

0 1
 O              
 H                  1            B1
 H                  1            B2    2            A1

   B1             0.96000000
   B2             0.96000000
   A1           109.50000006

 1 2 1.0 3 1.0
 2
 3

