%nprocshared=6
%mem=8GB
%chk=test4.chk
# opt sdgsergerhf/6-311++g(2d,p) geom=connectivity

Title Card Required

0 1
 F              
 H                  1            B1

   B1             0.88000000

 1 2 1.0
 2

